(declare-const income Real)
(declare-const p660 Real)
(declare-const p335 Real)
(declare-const p760 Real)
(declare-const p875 Real)
(declare-const fee_bl Real)
(assert (= p335 (* 0.0335 (ite (> income 47900) 47900 income))))
(assert (= p660 (ite (> income 47900) (* 0.0660 (- (ite (> income 116000) 116000 income) 47900)) 0)))
(assert (= p760 (ite (> income 116000) (* 0.0760 (- (ite (> income 242000) 242000 income) 116000)) 0)))
(assert (= p875 (ite (> income 242000) (* 0.0875 (- income 242000)) 0)))
(assert (= fee_bl (+ (+ (+ p335 p660) p760) p875)))